p cnf 91 377
-4 -61 -63 78 82 -84 0
11 12 -31 57 -73 -80 0
12 -31 57 58 78 -79 0
52 62 -63 78 82 84 0
1 42 60 83 -87 0
1 -42 60 83 -87 0
2 3 24 -32 59 0
3 23 -50 51 68 0
-3 -16 -19 67 91 0
-5 -6 -65 74 82 0
10 20 -69 -70 88 0
-21 -69 70 -72 88 0
29 -30 -31 57 -73 0
1 45 60 83 -87 0
13 -31 -73 -78 -79 0
1 2 24 -32 0
1 10 20 88 0
1 10 83 88 0
-1 8 -10 -70 0
2 -35 56 -61 0
-3 -16 -19 -51 0
-3 -16 67 91 0
-3 -49 51 -68 0
4 16 23 -68 0
4 19 23 59 0
-4 -63 -78 84 0
6 -36 -37 63 0
7 8 9 -47 0
7 8 9 55 0
7 45 48 55 0
-7 -8 -42 -60 0
9 40 -43 -87 0
9 -48 55 64 0
10 11 12 26 0
10 21 22 -77 0
10 22 -69 -77 0
-11 -14 -15 76 0
-11 -58 76 80 0
13 49 67 85 0
13 49 85 -86 0
13 67 -89 91 0
13 -86 -89 91 0
-13 68 90 -91 0
-14 -31 58 79 0
17 19 23 40 0
-18 -19 -38 -54 0
19 -30 -33 -36 0
19 40 41 47 0
-19 -23 -40 -43 0
-19 -41 -47 -48 0
20 53 -54 -70 0
-20 -21 69 70 0
21 69 70 88 0
21 -72 -77 88 0
22 41 53 71 0
22 -41 -53 -72 0
25 32 33 56 0
-29 30 57 -73 0
38 54 70 72 0
51 -68 -81 -85 0
3 23 27 -33 0
4 19 -51 -68 0
-6 -35 36 82 0
-8 10 -70 88 0
9 46 -47 64 0
10 11 12 -28 0
12 26 -27 57 0
12 57 58 -78 0
-16 -19 67 85 0
-18 -19 -60 -64 0
19 23 38 69 0
19 23 -76 -80 0
-38 -54 70 -72 0
1 2 -62 0
1 7 8 0
1 10 -32 0
1 -42 -83 0
1 -66 -67 0
-1 24 -59 0
-1 -24 -25 0
-2 -5 37 0
-2 -5 61 0
3 16 -32 0
3 28 -32 0
3 32 -56 0
3 50 89 0
-3 50 67 0
4 59 -82 0
4 -78 -84 0
-4 -5 84 0
5 -36 63 0
5 -36 -78 0
6 -36 -82 0
7 45 -55 0
-8 -9 -45 0
-8 -10 -83 0
-8 -39 -54 0
-8 -45 48 0
-8 -46 -47 0
-8 -46 -55 0
-9 -40 43 0
-9 43 -45 0
10 26 -34 0
10 -32 -34 0
10 34 -57 0
10 -60 83 0
-10 27 -34 0
11 -23 -28 0
11 26 -33 0
11 -33 -76 0
13 67 -89 0
13 67 -90 0
13 79 -84 0
-13 -49 -50 0
-13 -50 86 0
-13 68 90 0
-13 86 90 0
-13 90 -91 0
-14 58 80 0
15 25 30 0
15 -26 31 0
-15 -29 -30 0
16 -19 51 0
-16 -51 68 0
17 44 77 0
17 -71 -72 0
-18 -39 -48 0
-18 -69 -72 0
19 -65 -75 0
19 -74 -75 0
-19 -23 -26 0
-19 30 -34 0
-19 52 84 0
-19 -58 -76 0
-19 81 -85 0
21 22 -72 0
-22 -41 -53 0
23 -30 34 0
23 -65 75 0
-23 -32 56 0
-23 36 65 0
-23 -51 -81 0
-23 67 -89 0
-24 35 59 0
25 28 59 0
25 65 74 0
-25 -27 -28 0
28 31 57 0
29 30 33 0
-33 -35 -56 0
-35 37 62 0
-35 -52 -74 0
39 42 60 0
40 42 -87 0
-40 55 -87 0
-44 71 -77 0
45 46 -60 0
47 -54 -81 0
49 67 68 0
50 66 86 0
50 -66 -86 0
-50 66 67 0
-50 -66 89 0
52 -61 -78 0
53 70 -88 0
-53 70 72 0
58 76 -80 0
66 67 -90 0
66 -86 90 0
-66 67 -90 0
70 77 -88 0
-74 -75 76 0
-3 51 -68 91 0
1 24 0
1 27 0
1 -32 0
1 69 0
-1 -2 0
-1 28 0
-1 32 0
-1 33 0
-1 -36 0
-1 62 0
-1 66 0
-1 75 0
-1 -88 0
2 3 0
2 5 0
2 6 0
2 65 0
2 -74 0
-2 35 0
-2 -65 0
3 24 0
3 35 0
3 -51 0
3 56 0
3 88 0
-3 -28 0
-3 44 0
-3 -47 0
-3 -51 0
4 -6 0
4 10 0
4 -16 0
4 -52 0
4 61 0
4 63 0
4 78 0
4 84 0
4 89 0
4 -91 0
-4 82 0
5 -52 0
5 -63 0
5 76 0
5 78 0
5 -82 0
5 -84 0
-5 6 0
-5 78 0
6 19 0
6 35 0
6 41 0
6 -62 0
6 63 0
-6 37 0
-6 52 0
-6 -74 0
7 42 0
7 -47 0
7 64 0
-7 8 0
-7 -46 0
-7 87 0
8 -20 0
8 32 0
8 -50 0
8 55 0
8 -79 0
8 83 0
8 -88 0
-8 42 0
-8 45 0
-8 -64 0
-8 -71 0
-8 87 0
9 40 0
-9 -46 0
-9 70 0
10 21 0
10 -38 0
10 70 0
10 -77 0
10 83 0
-10 -11 0
-10 -12 0
-10 15 0
-10 26 0
-10 -88 0
11 -12 0
11 14 0
11 15 0
11 34 0
-11 31 0
-11 -57 0
-11 -80 0
12 -26 0
12 -73 0
12 79 0
-12 -13 0
-12 31 0
-12 -57 0
-12 -58 0
-12 73 0
-12 78 0
-12 -78 0
-12 79 0
-12 -79 0
13 -28 0
13 -31 0
13 -73 0
13 78 0
13 85 0
13 89 0
13 -90 0
13 91 0
-13 -67 0
-13 -85 0
-13 -91 0
14 -29 0
14 31 0
14 -57 0
14 73 0
14 78 0
14 -78 0
14 79 0
14 -79 0
-14 49 0
-14 -73 0
-14 -78 0
-14 -79 0
15 -31 0
15 57 0
15 -57 0
15 -58 0
-15 29 0
-15 57 0
-15 58 0
16 49 0
16 50 0
-16 -49 0
-16 85 0
-16 -89 0
17 18 0
17 -44 0
-17 -19 0
-17 22 0
-17 48 0
-17 -48 0
-17 -53 0
-17 77 0
-17 -77 0
18 39 0
18 41 0
18 47 0
18 54 0
18 64 0
18 69 0
18 81 0
-18 -47 0
-18 -53 0
-18 -86 0
19 38 0
19 42 0
19 51 0
19 54 0
19 56 0
19 -67 0
19 74 0
19 -76 0
19 -80 0
-19 44 0
-19 -50 0
-19 51 0
-19 -51 0
-19 58 0
-19 74 0
-19 -79 0
-19 -84 0
-19 86 0
-19 -86 0
-19 -87 0
20 -38 0
20 -53 0
-20 -22 0
-20 44 0
-20 72 0
-20 77 0
21 23 0
21 -42 0
21 -88 0
-21 22 0
-21 -42 0
-21 71 0
-21 -88 0
22 -44 0
22 54 0
-22 41 0
-22 53 0
-22 -61 0
-22 -71 0
23 28 0
23 32 0
23 40 0
23 41 0
23 54 0
